2 0 2 0
1 0 1 0
0 0 2 5
3 0 1 8
5 0 1 13
1 1 2 8
0 1 0 6
3 1 0 13
4 0 2 13
0 2 1 16
4 1 1 22
2 1 3 5
2 2 5 9
2 3 0 18
3 2 2 22
5 1 3 16
5 2 5 19
1 2 4 13
0 3 3 22
1 3 5 28
2 4 1 27
4 2 4 25
0 4 5 38
3 3 3 29
4 3 5 41
5 3 0 28
2 5 4 30
1 4 0 38
3 4 4 37
1 5 3 48
4 4 0 48
3 5 5 45
4 5 3 52
5 4 4 45
0 5 4 49
5 5 2 49

